50, 1785
95, 540
38, 216
171, 972
190, 1080
28, 132
56, 264
19, 108
171, 972
70, 330
7, 33
70, 330
14, 66
7, 33
28, 132
76, 432
38, 216
152, 864
114, 648
42, 198
28, 132
95, 540
35, 165
95, 540
95, 540
7, 33
49, 231
28, 132
14, 66
19, 108
133, 756
95, 540
171, 972
114, 648
21, 99
56, 264
171, 972
133, 756
49, 231
21, 99
19, 108
114, 648
56, 264
190, 1080
35, 165
28, 132
28, 132
152, 864
57, 324
42, 198
70, 330
